100
32
3
30
4
6
8
15
5
11
9
10
17
1
6
1
2
1
1
21
3
1
1
3
3
2
3
18
1
3
17
1
4
1
2
4
2
2
2
17
4
16
1
1
1
3
1
18
4
5
1
3
1
1
1
9
2
1
3
17
1
2
4
1
4
2
2
1
2
18
1
2
1
1
1
5
3
5
19
1
2
1
3
17
2
1
2
1
2
1
1
1
1
1
17
1
1
2
5
2
2
1